p cnf 7230 17
-3770 -3776 4839 -4843 0
-3778 -4841 4842 0
3234 -4841 0
3234 -4839 0
4841 -4843 0
3776 -4839 0
-3234 -3784 4840 0
-4842 4843 0
3778 -4843 0
-4840 4841 0
3784 -4841 0
-4838 4839 0
4838 -4839 0
3782 -4845 0
3780 -4845 0
3774 -4845 0
3236 -4845 0
